# 73847
param n := 25;
param s := 1;
set E :=  (0,3) (0,7) (0,11) (0,13) (0,15) (0,20) (0,24) (1,2) (1,17) (2,6) (2,18) (3,6) (3,16) (4,10) (5,15) (5,16) (6,7) (6,8) (6,15) (6,17) (7,14) (8,10) (8,12) (8,14) (9,19) (9,21) (9,23) (10,11) (10,20) (11,22) (12,21) (17,22) (18,21) (21,22);
